gen	cost
1	21216
2	21097
3	20994
4	20757
5	20599
6	20548
7	20524
8	20410
9	20301
10	20104
11	19958
12	19934
13	19890
14	19807
15	19788
16	19733
17	19727
18	19641
19	19537
20	19503
21	19479
22	19358
23	19320
24	19207
25	19178
26	19123
27	19048
28	19027
29	18989
30	18973
31	18973
32	18868
33	18848
34	18770
35	18676
36	18660
37	18620
38	18593
39	18582
40	18550
41	18536
42	18461
43	18421
44	18413
45	18403
46	18399
47	18365
48	18365
49	18363
50	18363

